NAME : bays29.2511.tour
COMMENT : Cost = 838_2511
COMMENT : Found by LKH [Keld Helsgaun] Thu Nov 16 17:24:02 2017
TYPE : TOUR
DIMENSION : 31
TOUR_SECTION
1
13
10
4
15
25
7
23
27
8
30
21
20
2
3
29
26
5
9
12
6
28
31
24
16
19
11
22
14
17
18
-1
EOF
